285 5
10 10 10 10 10 

0 0 0 0 0 0 3 2 14 26 
0 0 0 0 0 0 2 3 5 
9 0 0 0 1 0 3 8 6 4 
9 0 0 0 2 0 1 7 
10 0 0 0 2 0 1 6 
9 0 0 0 2 0 3 12 11 9 
2 0 0 0 2 0 3 12 11 9 
7 0 0 0 3 0 2 11 9 
5 0 0 0 3 0 1 10 
9 0 0 0 2 0 1 13 
1 0 0 0 3 0 2 13 255 
3 0 0 0 5 0 1 13 
0 0 0 0 0 0 1 38 
0 0 0 0 0 0 3 15 18 19 
2 0 0 0 1 0 2 17 16 
9 0 0 0 2 0 2 24 20 
2 0 0 0 1 0 2 24 20 
5 0 0 0 3 0 2 22 21 
9 0 0 0 5 0 1 20 
4 0 0 0 3 0 2 21 277 
2 0 0 0 4 0 1 23 
9 0 0 0 2 0 1 23 
7 0 0 0 3 0 1 25 
3 0 0 0 1 0 1 25 
0 0 0 0 0 0 1 38 
0 0 0 0 0 0 5 27 28 32 36 268 
1 0 1 0 0 0 3 35 34 30 
1 0 3 0 0 0 1 29 
3 0 3 0 0 0 2 34 30 
3 0 3 0 0 0 1 31 
5 0 3 0 0 0 1 33 
7 0 3 0 0 0 1 33 
3 0 2 0 0 0 1 37 
2 0 2 0 0 0 1 37 
3 0 2 0 0 0 1 37 
7 0 3 0 0 0 1 37 
0 0 0 0 0 0 1 38 
0 0 0 0 0 0 5 39 51 63 75 87 
0 0 0 0 0 0 3 40 42 45 
4 1 0 0 0 0 2 43 41 
1 3 0 0 0 0 3 48 44 206 
2 2 0 0 0 0 2 48 44 
6 1 0 0 0 0 2 49 48 
4 3 0 0 0 0 1 46 
2 4 0 0 0 0 1 47 
1 2 0 0 0 0 1 49 
1 2 0 0 0 0 1 48 
5 3 0 0 0 0 1 50 
6 4 0 0 0 0 1 50 
0 0 0 0 0 0 1 99 
0 0 0 0 0 0 3 52 54 55 
10 0 1 0 0 0 3 56 53 232 
3 0 4 0 0 0 2 60 57 
2 0 2 0 0 0 3 61 60 59 
2 0 1 0 0 0 1 56 
5 0 2 0 0 0 1 58 
5 0 3 0 0 0 1 58 
2 0 3 0 0 0 1 59 
1 0 3 0 0 0 1 62 
10 0 2 0 0 0 1 62 
4 0 4 0 0 0 1 62 
0 0 0 0 0 0 1 99 
0 0 0 0 0 0 3 64 67 68 
10 0 0 1 0 0 1 65 
2 0 0 3 0 0 3 70 66 244 
4 0 0 3 0 0 2 71 69 
5 0 0 4 0 0 2 71 70 
10 0 0 3 0 0 1 69 
6 0 0 3 0 0 2 73 72 
7 0 0 2 0 0 2 73 72 
7 0 0 1 0 0 1 72 
8 0 0 1 0 0 1 74 
4 0 0 4 0 0 1 74 
0 0 0 0 0 0 1 99 
0 0 0 0 0 0 5 76 78 79 81 85 
9 0 0 0 0 1 3 84 77 227 
7 0 0 0 0 2 1 80 
5 0 0 0 0 3 1 80 
7 0 0 0 0 2 2 84 83 
7 0 0 0 0 3 1 82 
10 0 0 0 0 2 1 82 
2 0 0 0 0 2 1 83 
7 0 0 0 0 3 1 86 
2 0 0 0 0 4 1 86 
1 0 0 0 0 3 1 86 
0 0 0 0 0 0 1 99 
0 0 0 0 0 0 5 88 89 90 91 205 
5 0 1 0 0 0 2 94 92 
3 0 2 0 0 0 2 96 93 
9 0 4 0 0 0 2 96 93 
7 0 2 0 0 0 2 96 95 
7 0 5 0 0 0 1 93 
7 0 1 0 0 0 1 95 
9 0 3 0 0 0 1 96 
5 0 1 0 0 0 1 97 
6 0 3 0 0 0 1 97 
3 0 3 0 0 0 1 98 
0 0 0 0 0 0 1 99 
0 0 0 0 0 0 5 100 122 144 166 178 
0 0 0 0 0 0 1 101 
8 1 0 0 1 0 1 102 
8 2 0 0 4 0 2 104 103 
9 3 0 0 4 0 1 105 
9 4 0 0 4 0 1 105 
6 1 0 0 1 0 1 106 
1 1 0 0 3 0 2 108 107 
9 5 0 0 3 0 2 111 109 
9 2 0 0 3 0 2 111 109 
8 3 0 0 2 0 4 114 113 112 110 
3 4 0 0 2 0 5 120 119 117 116 115 
10 1 0 0 2 0 5 120 119 117 116 115 
9 5 0 0 3 0 4 120 119 117 116 
6 3 0 0 2 0 4 119 117 116 115 
9 2 0 0 1 0 3 120 119 115 
2 1 0 0 3 0 1 118 
10 3 0 0 1 0 1 118 
4 1 0 0 2 0 2 118 163 
8 3 0 0 2 0 1 121 
10 4 0 0 4 0 1 121 
2 1 0 0 3 0 1 121 
0 0 0 0 0 0 1 248 
0 0 0 0 0 0 4 123 129 130 142 
8 1 1 0 0 0 2 135 124 
7 4 2 0 0 0 2 141 125 
8 4 3 0 0 0 4 140 139 133 126 
9 2 1 0 0 0 2 137 127 
10 2 1 0 0 0 1 128 
6 2 2 0 0 0 3 138 131 193 
1 2 5 0 0 0 3 137 135 134 
10 1 2 0 0 0 2 137 132 
2 3 3 0 0 0 1 132 
7 4 3 0 0 0 1 134 
3 1 3 0 0 0 1 134 
5 3 2 0 0 0 1 136 
2 3 3 0 0 0 1 136 
7 1 5 0 0 0 1 143 
2 2 2 0 0 0 1 143 
3 3 3 0 0 0 1 143 
6 3 3 0 0 0 1 143 
1 3 1 0 0 0 1 143 
3 3 3 0 0 0 1 143 
10 3 2 0 0 0 1 143 
0 0 0 0 0 0 1 248 
0 0 0 0 0 0 3 145 146 153 
2 1 0 0 1 0 3 155 152 147 
7 1 0 0 3 0 3 152 150 149 
8 3 0 0 1 0 1 148 
8 4 0 0 4 0 3 159 154 150 
3 3 0 0 2 0 4 159 157 155 154 
2 2 0 0 2 0 1 151 
10 5 0 0 3 0 2 157 156 
10 4 0 0 2 0 2 157 156 
6 2 0 0 4 0 1 154 
8 5 0 0 3 0 1 156 
9 1 0 0 1 0 1 156 
3 2 0 0 4 0 1 158 
5 2 0 0 3 0 1 158 
10 1 0 0 2 0 2 162 160 
6 3 0 0 4 0 3 162 160 256 
7 2 0 0 4 0 2 163 161 
3 2 0 0 2 0 1 164 
8 3 0 0 2 0 1 163 
3 2 0 0 2 0 1 165 
8 2 0 0 1 0 1 165 
0 0 0 0 0 0 1 248 
0 0 0 0 0 0 3 167 168 176 
4 1 0 0 0 0 2 175 169 
2 4 0 0 0 0 2 174 172 
10 3 0 0 0 0 1 170 
4 3 0 0 0 0 1 171 
3 1 0 0 0 0 1 173 
2 3 0 0 0 0 1 173 
9 2 0 0 0 0 1 177 
10 5 0 0 0 0 2 177 217 
9 1 0 0 0 0 1 177 
10 2 0 0 0 0 1 177 
0 0 0 0 0 0 4 200 212 224 236 
0 0 0 0 0 0 1 179 
8 0 1 0 1 0 2 185 180 
5 0 2 0 3 0 1 181 
8 0 3 0 2 0 4 198 197 195 182 
1 0 3 0 1 0 3 196 183 283 
2 0 2 0 2 0 2 191 184 
10 0 4 0 1 0 4 194 193 192 186 
5 0 2 0 4 0 3 195 191 188 
9 0 3 0 1 0 2 190 187 
9 0 3 0 1 0 1 188 
3 0 4 0 1 0 1 189 
9 0 2 0 5 0 1 199 
5 0 3 0 1 0 1 199 
2 0 2 0 2 0 1 199 
2 0 4 0 4 0 1 199 
7 0 3 0 2 0 1 199 
1 0 1 0 5 0 1 199 
4 0 2 0 1 0 1 199 
6 0 1 0 5 0 1 199 
5 0 2 0 5 0 1 199 
2 0 3 0 3 0 1 199 
0 0 0 0 0 0 1 248 
0 0 0 0 0 0 3 201 206 210 
2 0 1 0 0 0 3 209 205 202 
7 0 4 0 0 0 2 208 203 
2 0 3 0 0 0 2 204 231 
10 0 2 0 0 0 1 207 
9 0 3 0 0 0 1 208 
9 0 1 0 0 0 1 207 
1 0 2 0 0 0 1 211 
8 0 3 0 0 0 1 211 
7 0 3 0 0 0 1 211 
5 0 3 0 0 0 1 211 
0 0 0 0 0 0 1 248 
0 0 0 0 0 0 2 213 214 
1 0 0 0 0 1 2 222 215 
3 0 0 0 0 1 3 221 220 218 
6 0 0 0 0 2 1 216 
5 0 0 0 0 4 1 217 
9 0 0 0 0 2 2 220 219 
5 0 0 0 0 5 1 219 
6 0 0 0 0 2 1 223 
6 0 0 0 0 3 1 223 
1 0 0 0 0 4 1 223 
4 0 0 0 0 1 1 223 
0 0 0 0 0 0 1 248 
0 0 0 0 0 0 4 225 226 229 234 
7 0 1 0 0 0 1 227 
6 0 3 0 0 0 3 233 232 230 
10 0 4 0 0 0 2 232 228 
6 0 2 0 0 0 1 230 
10 0 2 0 0 0 1 230 
8 0 3 0 0 0 1 231 
4 0 2 0 0 0 1 235 
1 0 3 0 0 0 1 235 
9 0 4 0 0 0 1 235 
1 0 1 0 0 0 1 235 
0 0 0 0 0 0 1 248 
0 0 0 0 0 0 4 237 240 241 246 
3 0 1 0 0 0 2 245 238 
3 0 2 0 0 0 1 239 
2 0 3 0 0 0 2 244 242 
10 0 1 0 0 0 2 245 244 
3 0 2 0 0 0 1 242 
7 0 3 0 0 0 1 243 
9 0 4 0 0 0 1 247 
9 0 1 0 0 0 1 247 
6 0 6 0 0 0 1 247 
2 0 2 0 0 0 1 247 
0 0 0 0 0 0 1 248 
0 0 0 0 0 0 3 249 261 273 
0 0 0 0 0 0 2 250 252 
7 0 0 0 1 0 1 251 
6 0 0 0 4 0 3 258 255 253 
1 0 0 0 1 0 3 259 255 254 
5 0 0 0 5 0 1 254 
10 0 0 0 3 0 1 256 
5 0 0 0 2 0 1 257 
1 0 0 0 3 0 1 260 
10 0 0 0 2 0 1 260 
1 0 0 0 2 0 1 260 
6 0 0 0 2 0 1 260 
0 0 0 0 0 0 1 285 
0 0 0 0 0 0 4 262 266 270 271 
1 0 0 0 0 1 2 269 263 
5 0 0 0 0 2 2 268 264 
9 0 0 0 0 1 1 265 
6 0 0 0 0 2 1 267 
9 0 0 0 0 2 1 268 
7 0 0 0 0 2 1 272 
4 0 0 0 0 7 1 272 
8 0 0 0 0 2 1 272 
7 0 0 0 0 3 1 272 
7 0 0 0 0 3 1 272 
0 0 0 0 0 0 1 285 
0 0 0 0 0 0 4 274 275 277 283 
4 1 0 0 0 0 2 279 278 
7 2 0 0 0 0 1 276 
10 3 0 0 0 0 1 278 
10 3 0 0 0 0 1 278 
3 2 0 0 0 0 2 282 280 
10 2 0 0 0 0 1 280 
3 4 0 0 0 0 1 281 
9 1 0 0 0 0 1 284 
8 5 0 0 0 0 1 284 
10 2 0 0 0 0 1 284 
0 0 0 0 0 0 1 285 
0 0 0 0 0 0 0 
